c turning on binary mode checking
c parsing input formula with 202048 variables and 780975 clauses
c finished parsing, read 2374317 bytes from proof file
c detected empty clause; start verification via backward checking
c 1001 of 780975 clauses in core                            
c 311 of 92913 lemmas in core using 4771 resolution steps
c 0 RAT lemmas in core; 21 redundant literals in core lemmas
s VERIFIED
c verification time: 1.010 seconds
